<?xml version = "1.0" encoding="UTF-8" standalone="yes"?>
<CPLEXSolution version="1.2">
 <header
   problemName="inst_0_cut_n12"
   objectiveValue="357.60023054122303"
   solutionTypeValue="1"
   solutionTypeString="basic"
   solutionStatusValue="1"
   solutionStatusString="optimal"
   solutionMethodString="primal"
   primalFeasible="1"
   dualFeasible="1"
   simplexIterations="0"
   writeLevel="1"/>
 <quality
   epRHS="9.9999999999999995e-07"
   epOpt="9.9999999999999995e-07"
   maxPrimalInfeas="0"
   maxDualInfeas="0"
   maxPrimalResidual="1.2434497875801753e-13"
   maxDualResidual="1.7763568394002505e-14"
   maxX="1"
   maxPi="0.90492919091008905"
   maxSlack="1051.1598510630511"
   maxRedCost="62.618344494456039"
   kappa="30670.800600442435"/>
 <linearConstraints>
  <constraint name="c0" index="0" status="BS" slack="520.4340395945402" dual="-0"/>
  <constraint name="c1" index="1" status="LL" slack="0" dual="-0"/>
  <constraint name="c2" index="2" status="BS" slack="453.46149412668785" dual="-0"/>
  <constraint name="c3" index="3" status="BS" slack="70.410701869945399" dual="-0"/>
  <constraint name="c4" index="4" status="LL" slack="0" dual="0.3646668130420464"/>
  <constraint name="c5" index="5" status="BS" slack="452.65714311852747" dual="-0"/>
  <constraint name="c6" index="6" status="BS" slack="212.97055110330439" dual="-0"/>
  <constraint name="c7" index="7" status="BS" slack="1051.1598510630511" dual="-0"/>
  <constraint name="c8" index="8" status="LL" slack="0" dual="0.90492919091008905"/>
  <constraint name="c9" index="9" status="BS" slack="808.28416035422856" dual="-0"/>
  <constraint name="c10" index="10" status="BS" slack="3.080396677278828" dual="-0"/>
  <constraint name="c11" index="11" status="BS" slack="981.50454678523079" dual="-0"/>
  <constraint name="cut_1" index="12" status="LL" slack="0" dual="0.33384564716214737"/>
  <constraint name="cut_2" index="13" status="BS" slack="0.94120283968227625" dual="-0"/>
  <constraint name="cut_3" index="14" status="BS" slack="0.97254546785225671" dual="-0"/>
  <constraint name="cut_4" index="15" status="BS" slack="1.0233377245947253" dual="-0"/>
  <constraint name="cut_5" index="16" status="BS" slack="0.34841914589965484" dual="-0"/>
  <constraint name="cut_6" index="17" status="BS" slack="0.34285688147245708" dual="-0"/>
  <constraint name="cut_7" index="18" status="BS" slack="0.029448896695544846" dual="-0"/>
  <constraint name="cut_8" index="19" status="BS" slack="1.2741885314889245" dual="-0"/>
  <constraint name="cut_9" index="20" status="BS" slack="1.2261042192702973" dual="-0"/>
  <constraint name="cut_10" index="21" status="BS" slack="1.7158396457716236" dual="-0"/>
  <constraint name="cut_11" index="22" status="BS" slack="0.35364291726129693" dual="-0"/>
  <constraint name="cut_12" index="23" status="BS" slack="0.49545321476933779" dual="-0"/>
 </linearConstraints>
 <variables>
  <variable name="x0" index="0" status="BS" value="0.77389578072968224" reducedCost="0"/>
  <variable name="x1" index="1" status="UL" value="1" reducedCost="26.570699308376323"/>
  <variable name="x2" index="2" status="UL" value="1" reducedCost="24.744620704797441"/>
  <variable name="x3" index="3" status="LL" value="0" reducedCost="-56.92949280930948"/>
  <variable name="x4" index="4" status="LL" value="0" reducedCost="-16.230843122186862"/>
  <variable name="x5" index="5" status="LL" value="0" reducedCost="-46.991299813371398"/>
  <variable name="x6" index="6" status="LL" value="0" reducedCost="-62.618344494456039"/>
  <variable name="x7" index="7" status="LL" value="0" reducedCost="-44.692392139642124"/>
  <variable name="x8" index="8" status="LL" value="0" reducedCost="-14.849571852014497"/>
  <variable name="x9" index="9" status="LL" value="0" reducedCost="-59.878554177187418"/>
  <variable name="x10" index="10" status="BS" value="0.49283675485783185" reducedCost="0"/>
  <variable name="x11" index="11" status="LL" value="0" reducedCost="-6.9960753101328486"/>
  <variable name="x12" index="12" status="BS" value="0.65158085410034072" reducedCost="0"/>
  <variable name="s0" index="13" status="LL" value="0" reducedCost="0"/>
  <variable name="s1" index="14" status="BS" value="0.43403959454012497" reducedCost="0"/>
  <variable name="s2" index="15" status="LL" value="0" reducedCost="0"/>
  <variable name="s3" index="16" status="LL" value="0" reducedCost="0"/>
  <variable name="s4" index="17" status="LL" value="0" reducedCost="-0.3646668130420464"/>
  <variable name="s5" index="18" status="LL" value="0" reducedCost="0"/>
  <variable name="s6" index="19" status="LL" value="0" reducedCost="0"/>
  <variable name="s7" index="20" status="LL" value="0" reducedCost="0"/>
  <variable name="s8" index="21" status="LL" value="0" reducedCost="-0.90492919091008905"/>
  <variable name="s9" index="22" status="LL" value="0" reducedCost="0"/>
  <variable name="s10" index="23" status="LL" value="0" reducedCost="0"/>
  <variable name="s11" index="24" status="LL" value="0" reducedCost="0"/>
 </variables>
 <objectiveValues>
  <objective index="0" name="" value="357.60023054122303"/>
 </objectiveValues>
</CPLEXSolution>
